# {{job.gaussian_method}}/cc-pVDZ

h2o {{job.gaussian_method}}

0 1
O -1.769142 -0.076181 0.000000
H -2.065745 0.837492 0.000000
H -0.809034 0.001317 0.000000

